phon dispersion groupvelocity numerical  
name graphene  
  
sfinite 0.00001  
  
vectors  
60 	 0 	 0   
 0 	 6.401133e+00 	 0   
 0 	 0 	 3.340000e+00  
  
#-----REBO POTENTIAL-------  
REBO  
#-------------------------    
  
cartesian region 1  
C    core  0.13068 3.88499 0.00000   0.0     1.0  
C    core  0.65722 0.22954 0.00000   0.0     1.0  
C    core  0.91741 1.59881 0.00000   0.0     1.0  
C    core  1.44503 4.34436 0.00000   0.0     1.0  
C    core  1.70557 5.71355 0.00000   0.0     1.0  
C    core  2.23155 2.05834 0.00000   0.0     1.0  
C    core  2.49333 3.42731 0.00000   0.0     1.0  
C    core  3.02009 6.17275 0.00000   0.0     1.0  
C    core  3.27928 1.14109 0.00000   0.0     1.0  
C    core  3.80787 3.88654 0.00000   0.0     1.0  
C    core  4.06867 5.25564 0.00000   0.0     1.0  
C    core  4.59296 1.60101 0.00000   0.0     1.0  
C    core  4.85650 2.96966 0.00000   0.0     1.0  
C    core  5.38353 5.71456 0.00000   0.0     1.0  
C    core  5.63977 0.68351 0.00000   0.0     1.0  
C    core  6.17144 3.42865 0.00000   0.0     1.0  
C    core  6.43294 4.79751 0.00000   0.0     1.0  
C    core  6.95209 1.14454 0.00000   0.0     1.0  
C    core  7.22086 2.51228 0.00000   0.0     1.0  
C    core  7.74884 5.25573 0.00000   0.0     1.0  
C    core  7.99649 0.22654 0.00000   0.0     1.0  
C    core  8.53681 2.97073 0.00000   0.0     1.0  
C    core  8.80081 4.33854 0.00000   0.0     1.0  
C    core  9.30474 0.69125 0.00000   0.0     1.0  
C    core  9.58839 2.05602 0.00000   0.0     1.0  
C    core  10.11990 4.79514 0.00000   0.0     1.0  
C    core  10.34210 6.17369 0.00000   0.0     1.0  
C    core  10.90660 2.51391 0.00000   0.0     1.0  
C    core  11.17970 3.87391 0.00000   0.0     1.0  
C    core  11.64120 0.24389 0.00000   0.0     1.0  
C    core  11.96800 1.61127 0.00000   0.0     1.0  
C    core  12.50440 4.32885 0.00000   0.0     1.0  
C    core  12.64710 5.70594 0.00000   0.0     1.0  
C    core  13.30230 2.08640 0.00000   0.0     1.0  
C    core  13.63820 3.44415 0.00000   0.0     1.0  
C    core  13.89610 6.19415 0.00000   0.0     1.0  
C    core  14.29680 1.14378 0.00000   0.0     1.0  
C    core  15.00000 5.36152 0.00000   0.0     1.0  
C    core  15.00000 3.97056 0.00000   0.0     1.0  
C    core  15.70320 1.14378 0.00000   0.0     1.0  
C    core  16.10390 6.19415 0.00000   0.0     1.0  
C    core  16.36180 3.44415 0.00000   0.0     1.0  
C    core  16.69770 2.08640 0.00000   0.0     1.0  
C    core  17.35290 5.70594 0.00000   0.0     1.0  
C    core  17.49560 4.32885 0.00000   0.0     1.0  
C    core  18.03200 1.61127 0.00000   0.0     1.0  
C    core  18.35880 0.24389 0.00000   0.0     1.0  
C    core  18.82030 3.87391 0.00000   0.0     1.0  
C    core  19.09340 2.51391 0.00000   0.0     1.0  
C    core  19.65790 6.17369 0.00000   0.0     1.0  
C    core  19.88010 4.79514 0.00000   0.0     1.0  
C    core  20.41160 2.05602 0.00000   0.0     1.0  
C    core  20.69530 0.69125 0.00000   0.0     1.0  
C    core  21.19920 4.33854 0.00000   0.0     1.0  
C    core  21.46320 2.97073 0.00000   0.0     1.0  
C    core  22.00350 0.22654 0.00000   0.0     1.0  
C    core  22.25120 5.25573 0.00000   0.0     1.0  
C    core  22.77910 2.51228 0.00000   0.0     1.0  
C    core  23.04790 1.14454 0.00000   0.0     1.0  
C    core  23.56710 4.79751 0.00000   0.0     1.0  
C    core  23.82860 3.42865 0.00000   0.0     1.0  
C    core  24.36020 0.68351 0.00000   0.0     1.0  
C    core  24.61650 5.71456 0.00000   0.0     1.0  
C    core  25.14350 2.96966 0.00000   0.0     1.0  
C    core  25.40700 1.60101 0.00000   0.0     1.0  
C    core  25.93130 5.25564 0.00000   0.0     1.0  
C    core  26.19210 3.88654 0.00000   0.0     1.0  
C    core  26.72070 1.14109 0.00000   0.0     1.0  
C    core  26.97990 6.17275 0.00000   0.0     1.0  
C    core  27.50670 3.42731 0.00000   0.0     1.0  
C    core  27.76850 2.05834 0.00000   0.0     1.0  
C    core  28.29440 5.71355 0.00000   0.0     1.0  
C    core  28.55500 4.34436 0.00000   0.0     1.0  
C    core  29.08260 1.59881 0.00000   0.0     1.0  
C    core  29.34280 0.22954 0.00000   0.0     1.0  
C    core  29.86930 3.88499 0.00000   0.0     1.0  
C    core  30.13070 2.51595 0.00000   0.0     1.0  
C    core  30.65720 6.17140 0.00000   0.0     1.0  
C    core  30.91740 4.80213 0.00000   0.0     1.0  
C    core  31.44500 2.05657 0.00000   0.0     1.0  
C    core  31.70560 0.68739 0.00000   0.0     1.0  
C    core  32.23150 4.34260 0.00000   0.0     1.0  
C    core  32.49330 2.97363 0.00000   0.0     1.0  
C    core  33.02010 0.22819 0.00000   0.0     1.0  
C    core  33.27930 5.25985 0.00000   0.0     1.0  
C    core  33.80790 2.51440 0.00000   0.0     1.0  
C    core  34.06870 1.14530 0.00000   0.0     1.0  
C    core  34.59300 4.79993 0.00000   0.0     1.0  
C    core  34.85650 3.43128 0.00000   0.0     1.0  
C    core  35.38350 0.68637 0.00000   0.0     1.0  
C    core  35.63980 5.71743 0.00000   0.0     1.0  
C    core  36.17140 2.97229 0.00000   0.0     1.0  
C    core  36.43290 1.60343 0.00000   0.0     1.0  
C    core  36.95210 5.25640 0.00000   0.0     1.0  
C    core  37.22090 3.88866 0.00000   0.0     1.0  
C    core  37.74880 1.14521 0.00000   0.0     1.0  
C    core  37.99650 6.17440 0.00000   0.0     1.0  
C    core  38.53680 3.43020 0.00000   0.0     1.0  
C    core  38.80080 2.06240 0.00000   0.0     1.0  
C    core  39.30470 5.70969 0.00000   0.0     1.0  
C    core  39.58840 4.34492 0.00000   0.0     1.0  
C    core  40.11990 1.60580 0.00000   0.0     1.0  
C    core  40.34210 0.22724 0.00000   0.0     1.0  
C    core  40.90660 3.88703 0.00000   0.0     1.0  
C    core  41.17970 2.52703 0.00000   0.0     1.0  
C    core  41.64120 6.15705 0.00000   0.0     1.0  
C    core  41.96800 4.78967 0.00000   0.0     1.0  
C    core  42.50440 2.07209 0.00000   0.0     1.0  
C    core  42.64710 0.69500 0.00000   0.0     1.0  
C    core  43.30230 4.31454 0.00000   0.0     1.0  
C    core  43.63820 2.95679 0.00000   0.0     1.0  
C    core  43.89610 0.20679 0.00000   0.0     1.0  
C    core  44.29680 5.25716 0.00000   0.0     1.0  
C    core  45.00000 2.43038 0.00000   0.0     1.0  
C    core  45.00000 1.03941 0.00000   0.0     1.0  
C    core  45.70320 5.25716 0.00000   0.0     1.0  
C    core  46.10390 0.20679 0.00000   0.0     1.0  
C    core  46.36180 2.95679 0.00000   0.0     1.0  
C    core  46.69770 4.31454 0.00000   0.0     1.0  
C    core  47.35290 0.69500 0.00000   0.0     1.0  
C    core  47.49560 2.07209 0.00000   0.0     1.0  
C    core  48.03200 4.78967 0.00000   0.0     1.0  
C    core  48.35880 6.15705 0.00000   0.0     1.0  
C    core  48.82030 2.52703 0.00000   0.0     1.0  
C    core  49.09340 3.88703 0.00000   0.0     1.0  
C    core  49.65790 0.22724 0.00000   0.0     1.0  
C    core  49.88010 1.60580 0.00000   0.0     1.0  
C    core  50.41160 4.34492 0.00000   0.0     1.0  
C    core  50.69530 5.70969 0.00000   0.0     1.0  
C    core  51.19920 2.06240 0.00000   0.0     1.0  
C    core  51.46320 3.43020 0.00000   0.0     1.0  
C    core  52.00350 6.17440 0.00000   0.0     1.0  
C    core  52.25120 1.14521 0.00000   0.0     1.0  
C    core  52.77910 3.88866 0.00000   0.0     1.0  
C    core  53.04790 5.25640 0.00000   0.0     1.0  
C    core  53.56710 1.60343 0.00000   0.0     1.0  
C    core  53.82860 2.97229 0.00000   0.0     1.0  
C    core  54.36020 5.71743 0.00000   0.0     1.0  
C    core  54.61650 0.68637 0.00000   0.0     1.0  
C    core  55.14350 3.43128 0.00000   0.0     1.0  
C    core  55.40700 4.79993 0.00000   0.0     1.0  
C    core  55.93130 1.14530 0.00000   0.0     1.0  
C    core  56.19210 2.51440 0.00000   0.0     1.0  
C    core  56.72070 5.25985 0.00000   0.0     1.0  
C    core  56.97990 0.22819 0.00000   0.0     1.0  
C    core  57.50670 2.97363 0.00000   0.0     1.0  
C    core  57.76850 4.34260 0.00000   0.0     1.0  
C    core  58.29440 0.68739 0.00000   0.0     1.0  
C    core  58.55500 2.05657 0.00000   0.0     1.0  
C    core  59.08260 4.80213 0.00000   0.0     1.0  
C    core  59.34280 6.17140 0.00000   0.0     1.0  
C    core  59.86930 2.51595 0.00000   0.0     1.0  
  
element    
mass C 12.01    
end  
  
species   
C core 0.0  
  
kpoint  
0.33333	0.4	0  
output freq text freq.gout  
