clear
units metal
dimension 3 
boundary p p p		# not periodic unlike SLG
atom_style atomic

variable        dt              equal 0.002                    # timestep = 0.2 fs
timestep        ${dt}

neighbor 2.0 nsq

read_data	lmp_metal.in.x0.1 #min.lammps
mass 1 12.01

# Choose the appropriate potential
#pair_style      tersoff
#pair_coeff      * * SiC_optimized.tersoff C
pair_style airebo 3.0 0 0 # rebo
pair_coeff * * CH.airebo C

########################## Stage 0: Energy minimisation  #############################################################################

# Compute and print desired thermodynamic information
dump 1 all      custom 10000 dump_min.lammpstrj id type x  y  z			# energy minimisation
#dump_modify    1 sort id  format "%d %d %10.6f  %10.6f  %g %g %g %g"
dump_modify     1 sort id

thermo_style    custom step pe ke temp pxx pyy pxy pzz xlo xhi ylo yhi fmax fnorm

thermo 1000

#fix 1 all box/relax x 0.0 y 0.0 xy 0.0
min_style       fire 
minimize        0 1e-9 100000 100000
#minimize        0 0.5 10 10

#unfix freeze
#unfix relax
#unfix 1
undump 1





#-----------------

#------------(c)Variables & Settings: Simulation Parameters & timestep-------------------------------------------------
#LJ Parameters							  metal				LJ	
variable    	kB 		equal 8.617333262e-5 		# 8.617333262e-5 [eV/K] 	# 1.3806504e-23 [J/K] 
variable	sigma_Ar 	equal 3.34		        # 3.4 [Angs]  	 		# 3.40e-10 [m] 
variable	eps_Ar		equal 0.00296			# 0.00284 [eV]			# 4.55018144e-22 J
variable	mass_Ar         equal 12.01			# 12.0096 [g/mol]		# 1.9944235E-26 [kg]
variable	tau_Ar		equal 2.1659			# 2.250988369624405e-12 [ps]	# 2.250988369624405e-12 [s]
#thermo Parameters
variable    	T_melt 	equal 300			# 300*(${kB}/${eps_Ar})
variable	T_0K		equal 0.00001
variable	T_2_5K		equal 2.5			# 2.5*(${kB}/${eps_Ar})
variable	T_5K		equal 5				# 5*(${kB}/${eps_Ar})
variable	T_10K		equal 10			# 10*(${kB}/${eps_Ar})
variable	T_300K		equal 300			# 300*(${kB}/${eps_Ar})

#variable   	dt 		equal 0.001 			# timestep = 1 fs
variable	quench_rate	equal 1.0
variable	quench_length 	equal 10000
#kappa parameters
variable    	p 		equal 1000 		# correlation length
variable    	s 		equal 5  		# sample interval
variable    	d 		equal $p*$s 		# dump interval 

#SED parameters
variable	w_step		equal 	4 #32		
variable	w_total		equal 	65536 #131072
variable	t_total		equal 	65536 #1310726
variable	num_ffts	equal ${t_total}/${w_total}

#-------------------SEED--------------------------------------------
variable iseed equal 1
variable seed  equal 1111
variable T_run equal ${T_300K}
#-------------NPT1-----------------------------------------------------------
reset_timestep  0
velocity 	all create ${T_run} ${seed}
dump 		1 all 	custom 2000 dump_1.lammpstrj id type x  y  z  
dump_modify	1 sort id 

fix 		0 all temp/rescale 1 ${T_run} ${T_run} 0.01 1.0
fix		1 all npt temp ${T_run} ${T_run} $(100.0*dt) iso 0.0 0.0 1000.0 drag 2.0	#x 0.0 0.0 $(1000.0*dt) y 0.0 0.0 $(1000.0*dt)
fix  		2 all momentum 1 linear 1 1 1 angular

thermo_style    custom step temp press etotal vol

thermo 		1000

run 		200000

unfix 		1
unfix 		2

undump 	1

#--------------NVT2a------------------------------------
dump 		1 all 	custom 3000 dump_2.lammpstrj id type x  y  z  
dump_modify	1 sort id 

fix 		1 all nvt temp ${T_run} ${T_run} 0.1 drag 2.0

thermo_style	custom step temp press etotal vol
thermo 	1000

run 		200000

unfix		1

undump		1

#----------NVE3 + w/o SRAIN----------------------------------------------------------------------------------------
label 			loop_fft
variable 		ifft loop ${num_ffts}

	dump 			1 all custom 10000 dump_3.lammpstrj id type x  y  z 
	dump_modify		1 sort id 
	dump 			vel all custom ${w_step} dump_${iseed}_${ifft}.vel vx vy vz
	dump_modify 		vel sort id

	fix			1 all nve
	timestep		${dt}
	#fix			2 all langevin ${T_run} ${T_run} 100.0 699483
	fix  			3 all momentum 1 linear 1 1 1 angular
	#fix			4 all deform 1 x erate 0.0004 units box remap x

	thermo_style		custom step temp press etotal vol
	thermo 		1000

	run			${w_total}

	unfix			0
	unfix 			1
	#unfix			2
	unfix 			3		
	#unfix 		4

	undump 		1
	undump			vel

next 			ifft
jump 			lmp.in.sed.lj loop_fft
