# 3d beam simulation

clear
units metal
dimension 3
boundary p p s 
atom_style atomic


#read_data GB_1Periodic.lammps
read_data lmp_metal.in.x0.1

mass 1 12.01
timestep 0.001
neighbor 2.0 nsq 

variable boxx equal xhi 
variable boxy equal yhi 

#variable dy equal 0.7
# We distinguish three different regions

mass 1 12.01

# Choose the appropriate potential
pair_style airebo 3.0 0 0 
pair_coeff * * /home/abhikeern/softwares/lammps-5Jun19/potentials/CH.airebo C  

# Delete atoms that are created twice
#delete_atoms overlap 0.1 all all
#reset_ids

# Compute and print desired thermodynamic information
dump 1 all      custom 50000 dump_min.lammpstrj id type x  y  z
#dump_modify    1 sort id  format "%d %d %10.6f  %10.6f  %g %g %g %g"
dump_modify     1 sort id

thermo_style    custom step pe ke temp pxx pyy pxy pzz xlo xhi ylo yhi fmax fnorm

thermo 1000

min_style       fire 
minimize        0 1e-10 100000 100000

write_data      min.lammps

